10  5
 3 10  0  3  2 10  1  6  4 15   0 169  10
 0  7  3  6  2 15  1  6  4 15   0 169   5
 3 11  0  7  2  8  1  5  4 14   0 169  10
 3  7  0  6  2 12  1  9  4 12   0 169   5
 3  3  0  8  2  9  1  3  4  9   0 169   5
 0  6  3 10  2  9  1  9  4  9   0 169  10
 3  6  0  9  2 13  1  5  4  8   0 169  10
 0  5  1  9  2 12  3  8  4  8   0 169   5
 1 10  3  4  2 12  0  4  4 11   0 169   5
 1  5  3  6  2  8  0  6  4 15   0 169   5
